10

C                   1.280290   -0.613985    0.001455
C                   0.000005    0.180920    0.000006
O                  -0.000034    1.402460   -0.000001
H                   1.349171   -1.189219   -0.922833
H                   1.277458   -1.328909    0.824406
H                   2.135387    0.049631    0.084632
C                  -1.280261   -0.614040   -0.001451
H                  -2.135330    0.049618   -0.084642
H                  -1.277442   -1.328910   -0.824442
H                  -1.349170   -1.189261    0.922828
