10

C                   1.281552   -0.614264    0.000004
C                  -0.000001    0.182046    0.000016
O                   0.000001    1.401769   -0.000003
H                   1.315987   -1.261162   -0.877311
H                   1.315814   -1.261570    0.877021
H                   2.136217    0.055108    0.000227
C                  -1.281557   -0.614256   -0.000001
H                  -2.136251    0.055073   -0.000005
H                  -1.315857   -1.261367   -0.877169
H                  -1.315884   -1.261389    0.877151
