10

C                   1.271698   -0.610676   -0.000001
C                   0.000023    0.189867   -0.000031
O                  -0.000142    1.393388    0.000001
H                   1.304270   -1.263315   -0.875096
H                   1.304349   -1.262932    0.875361
H                   2.136234    0.047915   -0.000194
C                  -1.271585   -0.610947   -0.000007
H                  -2.135795    0.048107   -0.000771
H                  -1.304097   -1.263872   -0.874836
H                  -1.304646   -1.262477    0.875766
