10

C                   1.278026   -0.613234    0.001590
C                   0.000012    0.178511    0.000022
O                  -0.000061    1.403687   -0.000003
H                   1.346934   -1.180477   -0.927493
H                   1.267383   -1.335893    0.817250
H                   2.135706    0.045823    0.094238
C                  -1.277980   -0.613337   -0.001576
H                  -2.135576    0.045857   -0.094124
H                  -1.267417   -1.335736   -0.817456
H                  -1.346902   -1.180707    0.927389
