13

N              -1.272131    0.888868    0.000176
C              -0.191781    1.704212    0.000148
H              -0.385910    2.765765    0.000392
C               1.053845    1.171515   -0.000189
H               1.932018    1.795055   -0.000482
C               1.132296   -0.256083   -0.000190
N               2.340952   -0.843962   -0.003010
H               2.396825   -1.846720    0.008416
H               3.185332   -0.303513    0.011207
N               0.068981   -1.048389    0.000132
C              -1.182334   -0.504036    0.000061
O              -2.220244   -1.169587   -0.000001
H              -2.203085    1.276849    0.000408
