13

N               1.269887    0.892702    0.000192
C               0.192835    1.708208    0.000087
H               0.383357    2.771408    0.000163
C              -1.053695    1.176199   -0.000070
H              -1.930992    1.801290   -0.000183
C              -1.124792   -0.255649   -0.000088
N              -2.343820   -0.844809   -0.000256
H              -2.382182   -1.847614    0.000290
H              -3.187971   -0.308284    0.000531
N              -0.078029   -1.050793   -0.000039
C               1.187695   -0.518610   -0.000024
O               2.220369   -1.165243    0.000034
H               2.206313    1.264566    0.000228
